32      4       
10      10      10      10      
0       0       0       0       0       2       2       4       
3       1       1       1       0       1       3       
8       3       3       0       1       1       5       
5       5       0       4       6       1       5       
8       4       4       0       8       2       6       7       
4       0       3       2       1       5       8       9       11      12      13      
7       7       3       2       0       4       8       9       11      13      
7       0       4       5       4       1       10      
8       1       4       4       0       1       10      
9       2       5       0       2       3       14      15      16      
9       1       3       0       5       3       14      15      16      
4       6       5       0       3       3       14      15      16      
2       4       5       0       7       2       14      15      
4       0       3       3       5       4       17      18      19      20      
4       5       4       6       0       4       17      18      19      20      
9       5       3       5       0       4       17      18      19      20      
9       5       3       5       0       2       21      22      
6       1       5       3       0       2       21      22      
3       5       4       0       6       2       21      22      
1       2       4       5       0       2       21      22      
1       0       5       3       4       2       23      24      
8       0       5       3       3       1       23      
9       7       5       5       0       1       25      
4       9       5       0       3       1       25      
2       1       0       3       6       1       26      
2       0       3       3       3       1       27      
4       8       6       0       4       2       28      29      
10      3       2       0       3       2       30      31      
1       0       4       5       4       2       30      31      
4       0       8       6       2       1       32      
7       3       3       7       0       1       32      
0       0       0       0       0       0       
